NAME          
ROWS
 N  OBJ
 L  u1
 L  u2
 L  u3
 L  c4
 L  c5
 L  c6
COLUMNS
    x         u1        -3
    x         u2        1
    x         u3        1
    x         c4        2
    x         c5        -2
    x         OBJ       -3
    y         u1        2
    y         u2        2
    y         c4        -1
    y         c5        4
    y         c6        1
    y         OBJ       -7
RHS
    rhs       u1        12
    rhs       u2        20
    rhs       u3        10
    rhs       c4        7
    rhs       c5        16
    rhs       c6        5
RANGES
BOUNDS
 FR bounds    x
 FR bounds    y
ENDATA
